************************************************************************
file with basedata            : mf41_.bas
initial value random generator: 995309096
************************************************************************
projects                      :  1
jobs (incl. supersource/sink ):  32
horizon                       :  239
RESOURCES
  - renewable                 :  2   R
  - nonrenewable              :  2   N
  - doubly constrained        :  0   D
************************************************************************
PROJECT INFORMATION:
pronr.  #jobs rel.date duedate tardcost  MPM-Time
    1     30      0       24        5       24
************************************************************************
PRECEDENCE RELATIONS:
jobnr.    #modes  #successors   successors
   1        1          3           2   3   4
   2        3          3           6   7  10
   3        3          3           5   8   9
   4        3          1          11
   5        3          2          14  15
   6        3          3          13  16  17
   7        3          2          15  19
   8        3          1          24
   9        3          3          18  21  22
  10        3          3          11  12  20
  11        3          1          19
  12        3          1          27
  13        3          2          19  21
  14        3          2          16  31
  15        3          3          23  26  28
  16        3          1          25
  17        3          3          22  23  24
  18        3          1          30
  19        3          3          23  24  28
  20        3          2          25  29
  21        3          2          26  29
  22        3          3          28  30  31
  23        3          2          27  31
  24        3          1          25
  25        3          1          26
  26        3          1          27
  27        3          1          30
  28        3          1          29
  29        3          1          32
  30        3          1          32
  31        3          1          32
  32        1          0        
************************************************************************
REQUESTS/DURATIONS:
jobnr. mode duration  R 1  R 2  N 1  N 2
------------------------------------------------------------------------
  1      1     0       0    0    0    0
  2      1     3       8    0    4    8
         2     7       6    0    4    8
         3     7       0    5    4    7
  3      1     1       9    0    5    5
         2     5       6    0    5    3
         3     8       4    0    2    2
  4      1     6       0    7    6    6
         2     8       6    0    5    5
         3     8       0    6    4    6
  5      1     5       7    0    6    7
         2     9       4    0    6    5
         3    10       0    8    5    2
  6      1     3       0    9    4    5
         2     5       0    9    2    4
         3     9       6    0    2    3
  7      1     3       0    3    7    6
         2     7       0    3    4    5
         3     9       0    3    1    5
  8      1     3       0    4    4    9
         2     9       0    3    3    6
         3     9       0    4    1    3
  9      1     1       7    0    7    7
         2     9       0    8    7    7
         3    10       0    2    6    7
 10      1     1       0    4    8    9
         2     2       6    0    5    6
         3    10       4    0    3    6
 11      1     1       0    8    5    9
         2     5       6    0    4    6
         3     7       0    6    4    6
 12      1     4       0    7    2    3
         2     5       7    0    2    3
         3     7       0    6    2    2
 13      1     2       0    3    4    8
         2     7       0    3    3    7
         3     8       3    0    2    2
 14      1     1       0    7    6    9
         2     2       0    6    4    9
         3     7       0    5    3    8
 15      1     2      10    0    3    6
         2     3       7    0    3    5
         3     6       0    3    2    4
 16      1     3       7    0    8    9
         2     6       6    0    6    8
         3     8       0    3    2    7
 17      1     4       8    0   10    6
         2     6       4    0    9    5
         3     9       0    5    9    4
 18      1     1       7    0    8    9
         2     1       6    0   10    9
         3     2       5    0    8    9
 19      1     2       5    0    4    6
         2     2       0    7    4    4
         3     6       0    6    4    1
 20      1     2       9    0    3    7
         2     7       8    0    3    7
         3     8       8    0    3    5
 21      1     2       9    0    2    8
         2     5       7    0    1    4
         3     9       5    0    1    2
 22      1     1       0    7    7    7
         2     5       0    4    4    6
         3     8       0    2    4    6
 23      1     3       0    6    8    5
         2     6       3    0    7    4
         3     8       0    5    5    3
 24      1     3       7    0    5    8
         2     9       0    5    1    8
         3     9       6    0    3    8
 25      1     1       8    0    7    6
         2     2       7    0    7    4
         3     4       6    0    7    2
 26      1     5       9    0    4    4
         2     8       3    0    4    4
         3    10       0    5    4    2
 27      1     3       5    0   10    7
         2     4       4    0    9    7
         3     7       0    2    9    6
 28      1     4       0    8    3    4
         2     7       9    0    3    4
         3    10       0    6    3    3
 29      1     5       0    7    9    4
         2     6       0    4    8    4
         3    10       8    0    4    3
 30      1     2       6    0    9    9
         2     2       4    0    9   10
         3     8       4    0    7    9
 31      1     3       7    0    4    5
         2     4       4    0    4    4
         3     8       0    5    4    4
 32      1     0       0    0    0    0
************************************************************************
RESOURCEAVAILABILITIES:
  R 1  R 2  N 1  N 2
   16   15  145  169
************************************************************************
